sat
(:max-memory         18.05
 :memory             17.95
 :nlsat-conflicts    1
 :nlsat-propagations 13
 :nlsat-stages       5
 :num-allocs         27297
 :rlimit-count       1507
 :time               0.00
 :total-time         0.01)
